<number of tasks>
20

<cycle time>
1000

<order strength>
0,205


<task times>
1 511
2 328
3 478
4 479
5 802
6 339
7 471
8 533
9 503
10 531
11 559
12 446
13 722
14 500
15 419
16 509
17 372
18 524
19 644
20 383

<precedence relations>
1,5
2,7
3,6
4,8
5,11
6,9
7,12
8,10
8,13
9,15
10,14
11,16
14,17
15,20
16,18
16,19

<end>
